c t mc
c file mc2022_track1_061.cnf
p cnf 568 2494
1 0
-2 -34 0
-3 -34 0
2 3 34 0
2 3 -35 0
-2 -3 -35 0
-2 3 35 0
2 -3 35 0
34 -36 0
-4 -36 0
4 -34 36 0
4 -34 -37 0
-4 34 -37 0
4 34 37 0
-4 -34 37 0
36 -38 0
-5 -38 0
5 -36 38 0
5 -36 -39 0
-5 36 -39 0
5 36 39 0
-5 -36 39 0
38 -40 0
-6 -40 0
6 -38 40 0
6 -38 -41 0
-6 38 -41 0
6 38 41 0
-6 -38 41 0
40 -42 0
-7 -42 0
7 -40 42 0
7 -40 -43 0
-7 40 -43 0
7 40 43 0
-7 -40 43 0
42 -44 0
-8 -44 0
8 -42 44 0
8 -42 -45 0
-8 42 -45 0
8 42 45 0
-8 -42 45 0
44 -46 0
-9 -46 0
9 -44 46 0
9 -44 -47 0
-9 44 -47 0
9 44 47 0
-9 -44 47 0
46 -48 0
-10 -48 0
10 -46 48 0
10 -46 -49 0
-10 46 -49 0
10 46 49 0
-10 -46 49 0
48 -50 0
-11 -50 0
11 -48 50 0
11 -48 -51 0
-11 48 -51 0
11 48 51 0
-11 -48 51 0
50 -52 0
-12 -52 0
12 -50 52 0
12 -50 -53 0
-12 50 -53 0
12 50 53 0
-12 -50 53 0
52 -54 0
-13 -54 0
13 -52 54 0
13 -52 -55 0
-13 52 -55 0
13 52 55 0
-13 -52 55 0
54 -56 0
-14 -56 0
14 -54 56 0
14 -54 -57 0
-14 54 -57 0
14 54 57 0
-14 -54 57 0
56 -58 0
-15 -58 0
15 -56 58 0
15 -56 -59 0
-15 56 -59 0
15 56 59 0
-15 -56 59 0
58 -60 0
-16 -60 0
16 -58 60 0
16 -58 -61 0
-16 58 -61 0
16 58 61 0
-16 -58 61 0
60 -62 0
-17 -62 0
17 -60 62 0
17 -60 -63 0
-17 60 -63 0
17 60 63 0
-17 -60 63 0
-3 17 64 0
3 17 -64 0
-17 -35 64 0
-17 35 -64 0
-4 17 65 0
4 17 -65 0
-17 -37 65 0
-17 37 -65 0
-5 17 66 0
5 17 -66 0
-17 -39 66 0
-17 39 -66 0
-6 17 67 0
6 17 -67 0
-17 -41 67 0
-17 41 -67 0
-7 17 68 0
7 17 -68 0
-17 -43 68 0
-17 43 -68 0
-8 17 69 0
8 17 -69 0
-17 -45 69 0
-17 45 -69 0
-9 17 70 0
9 17 -70 0
-17 -47 70 0
-17 47 -70 0
-10 17 71 0
10 17 -71 0
-17 -49 71 0
-17 49 -71 0
-11 17 72 0
11 17 -72 0
-17 -51 72 0
-17 51 -72 0
-12 17 73 0
12 17 -73 0
-17 -53 73 0
-17 53 -73 0
-13 17 74 0
13 17 -74 0
-17 -55 74 0
-17 55 -74 0
-14 17 75 0
14 17 -75 0
-17 -57 75 0
-17 57 -75 0
-15 17 76 0
15 17 -76 0
-17 -59 76 0
-17 59 -76 0
-16 17 77 0
16 17 -77 0
-17 -61 77 0
-17 61 -77 0
17 -78 0
-17 -63 78 0
-17 63 -78 0
-18 -79 0
-19 -79 0
18 19 79 0
18 19 -80 0
-18 -19 -80 0
-18 19 80 0
18 -19 80 0
79 -81 0
-20 -81 0
20 -79 81 0
20 -79 -82 0
-20 79 -82 0
20 79 82 0
-20 -79 82 0
81 -83 0
-21 -83 0
21 -81 83 0
21 -81 -84 0
-21 81 -84 0
21 81 84 0
-21 -81 84 0
83 -85 0
-22 -85 0
22 -83 85 0
22 -83 -86 0
-22 83 -86 0
22 83 86 0
-22 -83 86 0
85 -87 0
-23 -87 0
23 -85 87 0
23 -85 -88 0
-23 85 -88 0
23 85 88 0
-23 -85 88 0
87 -89 0
-24 -89 0
24 -87 89 0
24 -87 -90 0
-24 87 -90 0
24 87 90 0
-24 -87 90 0
89 -91 0
-25 -91 0
25 -89 91 0
25 -89 -92 0
-25 89 -92 0
25 89 92 0
-25 -89 92 0
91 -93 0
-26 -93 0
26 -91 93 0
26 -91 -94 0
-26 91 -94 0
26 91 94 0
-26 -91 94 0
93 -95 0
-27 -95 0
27 -93 95 0
27 -93 -96 0
-27 93 -96 0
27 93 96 0
-27 -93 96 0
95 -97 0
-28 -97 0
28 -95 97 0
28 -95 -98 0
-28 95 -98 0
28 95 98 0
-28 -95 98 0
97 -99 0
-29 -99 0
29 -97 99 0
29 -97 -100 0
-29 97 -100 0
29 97 100 0
-29 -97 100 0
99 -101 0
-30 -101 0
30 -99 101 0
30 -99 -102 0
-30 99 -102 0
30 99 102 0
-30 -99 102 0
101 -103 0
-31 -103 0
31 -101 103 0
31 -101 -104 0
-31 101 -104 0
31 101 104 0
-31 -101 104 0
103 -105 0
-32 -105 0
32 -103 105 0
32 -103 -106 0
-32 103 -106 0
32 103 106 0
-32 -103 106 0
105 -107 0
-33 -107 0
33 -105 107 0
33 -105 -108 0
-33 105 -108 0
33 105 108 0
-33 -105 108 0
-19 33 109 0
19 33 -109 0
-33 -80 109 0
-33 80 -109 0
-20 33 110 0
20 33 -110 0
-33 -82 110 0
-33 82 -110 0
-21 33 111 0
21 33 -111 0
-33 -84 111 0
-33 84 -111 0
-22 33 112 0
22 33 -112 0
-33 -86 112 0
-33 86 -112 0
-23 33 113 0
23 33 -113 0
-33 -88 113 0
-33 88 -113 0
-24 33 114 0
24 33 -114 0
-33 -90 114 0
-33 90 -114 0
-25 33 115 0
25 33 -115 0
-33 -92 115 0
-33 92 -115 0
-26 33 116 0
26 33 -116 0
-33 -94 116 0
-33 94 -116 0
-27 33 117 0
27 33 -117 0
-33 -96 117 0
-33 96 -117 0
-28 33 118 0
28 33 -118 0
-33 -98 118 0
-33 98 -118 0
-29 33 119 0
29 33 -119 0
-33 -100 119 0
-33 100 -119 0
-30 33 120 0
30 33 -120 0
-33 -102 120 0
-33 102 -120 0
-31 33 121 0
31 33 -121 0
-33 -104 121 0
-33 104 -121 0
-32 33 122 0
32 33 -122 0
-33 -106 122 0
-33 106 -122 0
33 -123 0
-33 -108 123 0
-33 108 -123 0
18 -124 0
2 -124 0
-2 -18 124 0
109 -125 0
2 -125 0
-2 -109 125 0
110 -126 0
2 -126 0
-2 -110 126 0
111 -127 0
2 -127 0
-2 -111 127 0
112 -128 0
2 -128 0
-2 -112 128 0
113 -129 0
2 -129 0
-2 -113 129 0
114 -130 0
2 -130 0
-2 -114 130 0
115 -131 0
2 -131 0
-2 -115 131 0
116 -132 0
2 -132 0
-2 -116 132 0
117 -133 0
2 -133 0
-2 -117 133 0
118 -134 0
2 -134 0
-2 -118 134 0
119 -135 0
2 -135 0
-2 -119 135 0
120 -136 0
2 -136 0
-2 -120 136 0
121 -137 0
2 -137 0
-2 -121 137 0
122 -138 0
2 -138 0
-2 -122 138 0
123 -139 0
2 -139 0
-2 -123 139 0
18 -140 0
64 -140 0
-18 -64 140 0
109 -141 0
64 -141 0
-64 -109 141 0
110 -142 0
64 -142 0
-64 -110 142 0
111 -143 0
64 -143 0
-64 -111 143 0
112 -144 0
64 -144 0
-64 -112 144 0
113 -145 0
64 -145 0
-64 -113 145 0
114 -146 0
64 -146 0
-64 -114 146 0
115 -147 0
64 -147 0
-64 -115 147 0
116 -148 0
64 -148 0
-64 -116 148 0
117 -149 0
64 -149 0
-64 -117 149 0
118 -150 0
64 -150 0
-64 -118 150 0
119 -151 0
64 -151 0
-64 -119 151 0
120 -152 0
64 -152 0
-64 -120 152 0
121 -153 0
64 -153 0
-64 -121 153 0
122 -154 0
64 -154 0
-64 -122 154 0
125 -155 0
140 -155 0
-125 -140 155 0
-125 -140 -156 0
125 140 -156 0
-125 140 156 0
125 -140 156 0
-126 -141 157 0
-126 -155 157 0
-141 -155 157 0
126 141 -157 0
126 155 -157 0
141 155 -157 0
126 -157 -158 0
141 -157 -158 0
155 -157 -158 0
-126 157 158 0
-141 157 158 0
-155 157 158 0
-126 -141 -155 158 0
126 141 155 -158 0
-127 -142 159 0
-127 -157 159 0
-142 -157 159 0
127 142 -159 0
127 157 -159 0
142 157 -159 0
127 -159 -160 0
142 -159 -160 0
157 -159 -160 0
-127 159 160 0
-142 159 160 0
-157 159 160 0
-127 -142 -157 160 0
127 142 157 -160 0
-128 -143 161 0
-128 -159 161 0
-143 -159 161 0
128 143 -161 0
128 159 -161 0
143 159 -161 0
128 -161 -162 0
143 -161 -162 0
159 -161 -162 0
-128 161 162 0
-143 161 162 0
-159 161 162 0
-128 -143 -159 162 0
128 143 159 -162 0
-129 -144 163 0
-129 -161 163 0
-144 -161 163 0
129 144 -163 0
129 161 -163 0
144 161 -163 0
129 -163 -164 0
144 -163 -164 0
161 -163 -164 0
-129 163 164 0
-144 163 164 0
-161 163 164 0
-129 -144 -161 164 0
129 144 161 -164 0
-130 -145 165 0
-130 -163 165 0
-145 -163 165 0
130 145 -165 0
130 163 -165 0
145 163 -165 0
130 -165 -166 0
145 -165 -166 0
163 -165 -166 0
-130 165 166 0
-145 165 166 0
-163 165 166 0
-130 -145 -163 166 0
130 145 163 -166 0
-131 -146 167 0
-131 -165 167 0
-146 -165 167 0
131 146 -167 0
131 165 -167 0
146 165 -167 0
131 -167 -168 0
146 -167 -168 0
165 -167 -168 0
-131 167 168 0
-146 167 168 0
-165 167 168 0
-131 -146 -165 168 0
131 146 165 -168 0
-132 -147 169 0
-132 -167 169 0
-147 -167 169 0
132 147 -169 0
132 167 -169 0
147 167 -169 0
132 -169 -170 0
147 -169 -170 0
167 -169 -170 0
-132 169 170 0
-147 169 170 0
-167 169 170 0
-132 -147 -167 170 0
132 147 167 -170 0
-133 -148 171 0
-133 -169 171 0
-148 -169 171 0
133 148 -171 0
133 169 -171 0
148 169 -171 0
133 -171 -172 0
148 -171 -172 0
169 -171 -172 0
-133 171 172 0
-148 171 172 0
-169 171 172 0
-133 -148 -169 172 0
133 148 169 -172 0
-134 -149 173 0
-134 -171 173 0
-149 -171 173 0
134 149 -173 0
134 171 -173 0
149 171 -173 0
134 -173 -174 0
149 -173 -174 0
171 -173 -174 0
-134 173 174 0
-149 173 174 0
-171 173 174 0
-134 -149 -171 174 0
134 149 171 -174 0
-135 -150 175 0
-135 -173 175 0
-150 -173 175 0
135 150 -175 0
135 173 -175 0
150 173 -175 0
135 -175 -176 0
150 -175 -176 0
173 -175 -176 0
-135 175 176 0
-150 175 176 0
-173 175 176 0
-135 -150 -173 176 0
135 150 173 -176 0
-136 -151 177 0
-136 -175 177 0
-151 -175 177 0
136 151 -177 0
136 175 -177 0
151 175 -177 0
136 -177 -178 0
151 -177 -178 0
175 -177 -178 0
-136 177 178 0
-151 177 178 0
-175 177 178 0
-136 -151 -175 178 0
136 151 175 -178 0
-137 -152 179 0
-137 -177 179 0
-152 -177 179 0
137 152 -179 0
137 177 -179 0
152 177 -179 0
137 -179 -180 0
152 -179 -180 0
177 -179 -180 0
-137 179 180 0
-152 179 180 0
-177 179 180 0
-137 -152 -177 180 0
137 152 177 -180 0
-138 -153 181 0
-138 -179 181 0
-153 -179 181 0
138 153 -181 0
138 179 -181 0
153 179 -181 0
138 -181 -182 0
153 -181 -182 0
179 -181 -182 0
-138 181 182 0
-153 181 182 0
-179 181 182 0
-138 -153 -179 182 0
138 153 179 -182 0
-139 -154 183 0
-139 -181 183 0
-154 -181 183 0
139 154 -183 0
139 181 -183 0
154 181 -183 0
139 -183 -184 0
154 -183 -184 0
181 -183 -184 0
-139 183 184 0
-154 183 184 0
-181 183 184 0
-139 -154 -181 184 0
139 154 181 -184 0
18 -185 0
65 -185 0
-18 -65 185 0
109 -186 0
65 -186 0
-65 -109 186 0
110 -187 0
65 -187 0
-65 -110 187 0
111 -188 0
65 -188 0
-65 -111 188 0
112 -189 0
65 -189 0
-65 -112 189 0
113 -190 0
65 -190 0
-65 -113 190 0
114 -191 0
65 -191 0
-65 -114 191 0
115 -192 0
65 -192 0
-65 -115 192 0
116 -193 0
65 -193 0
-65 -116 193 0
117 -194 0
65 -194 0
-65 -117 194 0
118 -195 0
65 -195 0
-65 -118 195 0
119 -196 0
65 -196 0
-65 -119 196 0
120 -197 0
65 -197 0
-65 -120 197 0
121 -198 0
65 -198 0
-65 -121 198 0
158 -199 0
185 -199 0
-158 -185 199 0
-158 -185 -200 0
158 185 -200 0
-158 185 200 0
158 -185 200 0
-160 -186 201 0
-160 -199 201 0
-186 -199 201 0
160 186 -201 0
160 199 -201 0
186 199 -201 0
160 -201 -202 0
186 -201 -202 0
199 -201 -202 0
-160 201 202 0
-186 201 202 0
-199 201 202 0
-160 -186 -199 202 0
160 186 199 -202 0
-162 -187 203 0
-162 -201 203 0
-187 -201 203 0
162 187 -203 0
162 201 -203 0
187 201 -203 0
162 -203 -204 0
187 -203 -204 0
201 -203 -204 0
-162 203 204 0
-187 203 204 0
-201 203 204 0
-162 -187 -201 204 0
162 187 201 -204 0
-164 -188 205 0
-164 -203 205 0
-188 -203 205 0
164 188 -205 0
164 203 -205 0
188 203 -205 0
164 -205 -206 0
188 -205 -206 0
203 -205 -206 0
-164 205 206 0
-188 205 206 0
-203 205 206 0
-164 -188 -203 206 0
164 188 203 -206 0
-166 -189 207 0
-166 -205 207 0
-189 -205 207 0
166 189 -207 0
166 205 -207 0
189 205 -207 0
166 -207 -208 0
189 -207 -208 0
205 -207 -208 0
-166 207 208 0
-189 207 208 0
-205 207 208 0
-166 -189 -205 208 0
166 189 205 -208 0
-168 -190 209 0
-168 -207 209 0
-190 -207 209 0
168 190 -209 0
168 207 -209 0
190 207 -209 0
168 -209 -210 0
190 -209 -210 0
207 -209 -210 0
-168 209 210 0
-190 209 210 0
-207 209 210 0
-168 -190 -207 210 0
168 190 207 -210 0
-170 -191 211 0
-170 -209 211 0
-191 -209 211 0
170 191 -211 0
170 209 -211 0
191 209 -211 0
170 -211 -212 0
191 -211 -212 0
209 -211 -212 0
-170 211 212 0
-191 211 212 0
-209 211 212 0
-170 -191 -209 212 0
170 191 209 -212 0
-172 -192 213 0
-172 -211 213 0
-192 -211 213 0
172 192 -213 0
172 211 -213 0
192 211 -213 0
172 -213 -214 0
192 -213 -214 0
211 -213 -214 0
-172 213 214 0
-192 213 214 0
-211 213 214 0
-172 -192 -211 214 0
172 192 211 -214 0
-174 -193 215 0
-174 -213 215 0
-193 -213 215 0
174 193 -215 0
174 213 -215 0
193 213 -215 0
174 -215 -216 0
193 -215 -216 0
213 -215 -216 0
-174 215 216 0
-193 215 216 0
-213 215 216 0
-174 -193 -213 216 0
174 193 213 -216 0
-176 -194 217 0
-176 -215 217 0
-194 -215 217 0
176 194 -217 0
176 215 -217 0
194 215 -217 0
176 -217 -218 0
194 -217 -218 0
215 -217 -218 0
-176 217 218 0
-194 217 218 0
-215 217 218 0
-176 -194 -215 218 0
176 194 215 -218 0
-178 -195 219 0
-178 -217 219 0
-195 -217 219 0
178 195 -219 0
178 217 -219 0
195 217 -219 0
178 -219 -220 0
195 -219 -220 0
217 -219 -220 0
-178 219 220 0
-195 219 220 0
-217 219 220 0
-178 -195 -217 220 0
178 195 217 -220 0
-180 -196 221 0
-180 -219 221 0
-196 -219 221 0
180 196 -221 0
180 219 -221 0
196 219 -221 0
180 -221 -222 0
196 -221 -222 0
219 -221 -222 0
-180 221 222 0
-196 221 222 0
-219 221 222 0
-180 -196 -219 222 0
180 196 219 -222 0
-182 -197 223 0
-182 -221 223 0
-197 -221 223 0
182 197 -223 0
182 221 -223 0
197 221 -223 0
182 -223 -224 0
197 -223 -224 0
221 -223 -224 0
-182 223 224 0
-197 223 224 0
-221 223 224 0
-182 -197 -221 224 0
182 197 221 -224 0
-184 -198 225 0
-184 -223 225 0
-198 -223 225 0
184 198 -225 0
184 223 -225 0
198 223 -225 0
184 -225 -226 0
198 -225 -226 0
223 -225 -226 0
-184 225 226 0
-198 225 226 0
-223 225 226 0
-184 -198 -223 226 0
184 198 223 -226 0
18 -227 0
66 -227 0
-18 -66 227 0
109 -228 0
66 -228 0
-66 -109 228 0
110 -229 0
66 -229 0
-66 -110 229 0
111 -230 0
66 -230 0
-66 -111 230 0
112 -231 0
66 -231 0
-66 -112 231 0
113 -232 0
66 -232 0
-66 -113 232 0
114 -233 0
66 -233 0
-66 -114 233 0
115 -234 0
66 -234 0
-66 -115 234 0
116 -235 0
66 -235 0
-66 -116 235 0
117 -236 0
66 -236 0
-66 -117 236 0
118 -237 0
66 -237 0
-66 -118 237 0
119 -238 0
66 -238 0
-66 -119 238 0
120 -239 0
66 -239 0
-66 -120 239 0
202 -240 0
227 -240 0
-202 -227 240 0
-202 -227 -241 0
202 227 -241 0
-202 227 241 0
202 -227 241 0
-204 -228 242 0
-204 -240 242 0
-228 -240 242 0
204 228 -242 0
204 240 -242 0
228 240 -242 0
204 -242 -243 0
228 -242 -243 0
240 -242 -243 0
-204 242 243 0
-228 242 243 0
-240 242 243 0
-204 -228 -240 243 0
204 228 240 -243 0
-206 -229 244 0
-206 -242 244 0
-229 -242 244 0
206 229 -244 0
206 242 -244 0
229 242 -244 0
206 -244 -245 0
229 -244 -245 0
242 -244 -245 0
-206 244 245 0
-229 244 245 0
-242 244 245 0
-206 -229 -242 245 0
206 229 242 -245 0
-208 -230 246 0
-208 -244 246 0
-230 -244 246 0
208 230 -246 0
208 244 -246 0
230 244 -246 0
208 -246 -247 0
230 -246 -247 0
244 -246 -247 0
-208 246 247 0
-230 246 247 0
-244 246 247 0
-208 -230 -244 247 0
208 230 244 -247 0
-210 -231 248 0
-210 -246 248 0
-231 -246 248 0
210 231 -248 0
210 246 -248 0
231 246 -248 0
210 -248 -249 0
231 -248 -249 0
246 -248 -249 0
-210 248 249 0
-231 248 249 0
-246 248 249 0
-210 -231 -246 249 0
210 231 246 -249 0
-212 -232 250 0
-212 -248 250 0
-232 -248 250 0
212 232 -250 0
212 248 -250 0
232 248 -250 0
212 -250 -251 0
232 -250 -251 0
248 -250 -251 0
-212 250 251 0
-232 250 251 0
-248 250 251 0
-212 -232 -248 251 0
212 232 248 -251 0
-214 -233 252 0
-214 -250 252 0
-233 -250 252 0
214 233 -252 0
214 250 -252 0
233 250 -252 0
214 -252 -253 0
233 -252 -253 0
250 -252 -253 0
-214 252 253 0
-233 252 253 0
-250 252 253 0
-214 -233 -250 253 0
214 233 250 -253 0
-216 -234 254 0
-216 -252 254 0
-234 -252 254 0
216 234 -254 0
216 252 -254 0
234 252 -254 0
216 -254 -255 0
234 -254 -255 0
252 -254 -255 0
-216 254 255 0
-234 254 255 0
-252 254 255 0
-216 -234 -252 255 0
216 234 252 -255 0
-218 -235 256 0
-218 -254 256 0
-235 -254 256 0
218 235 -256 0
218 254 -256 0
235 254 -256 0
218 -256 -257 0
235 -256 -257 0
254 -256 -257 0
-218 256 257 0
-235 256 257 0
-254 256 257 0
-218 -235 -254 257 0
218 235 254 -257 0
-220 -236 258 0
-220 -256 258 0
-236 -256 258 0
220 236 -258 0
220 256 -258 0
236 256 -258 0
220 -258 -259 0
236 -258 -259 0
256 -258 -259 0
-220 258 259 0
-236 258 259 0
-256 258 259 0
-220 -236 -256 259 0
220 236 256 -259 0
-222 -237 260 0
-222 -258 260 0
-237 -258 260 0
222 237 -260 0
222 258 -260 0
237 258 -260 0
222 -260 -261 0
237 -260 -261 0
258 -260 -261 0
-222 260 261 0
-237 260 261 0
-258 260 261 0
-222 -237 -258 261 0
222 237 258 -261 0
-224 -238 262 0
-224 -260 262 0
-238 -260 262 0
224 238 -262 0
224 260 -262 0
238 260 -262 0
224 -262 -263 0
238 -262 -263 0
260 -262 -263 0
-224 262 263 0
-238 262 263 0
-260 262 263 0
-224 -238 -260 263 0
224 238 260 -263 0
-226 -239 264 0
-226 -262 264 0
-239 -262 264 0
226 239 -264 0
226 262 -264 0
239 262 -264 0
226 -264 -265 0
239 -264 -265 0
262 -264 -265 0
-226 264 265 0
-239 264 265 0
-262 264 265 0
-226 -239 -262 265 0
226 239 262 -265 0
18 -266 0
67 -266 0
-18 -67 266 0
109 -267 0
67 -267 0
-67 -109 267 0
110 -268 0
67 -268 0
-67 -110 268 0
111 -269 0
67 -269 0
-67 -111 269 0
112 -270 0
67 -270 0
-67 -112 270 0
113 -271 0
67 -271 0
-67 -113 271 0
114 -272 0
67 -272 0
-67 -114 272 0
115 -273 0
67 -273 0
-67 -115 273 0
116 -274 0
67 -274 0
-67 -116 274 0
117 -275 0
67 -275 0
-67 -117 275 0
118 -276 0
67 -276 0
-67 -118 276 0
119 -277 0
67 -277 0
-67 -119 277 0
243 -278 0
266 -278 0
-243 -266 278 0
-243 -266 -279 0
243 266 -279 0
-243 266 279 0
243 -266 279 0
-245 -267 280 0
-245 -278 280 0
-267 -278 280 0
245 267 -280 0
245 278 -280 0
267 278 -280 0
245 -280 -281 0
267 -280 -281 0
278 -280 -281 0
-245 280 281 0
-267 280 281 0
-278 280 281 0
-245 -267 -278 281 0
245 267 278 -281 0
-247 -268 282 0
-247 -280 282 0
-268 -280 282 0
247 268 -282 0
247 280 -282 0
268 280 -282 0
247 -282 -283 0
268 -282 -283 0
280 -282 -283 0
-247 282 283 0
-268 282 283 0
-280 282 283 0
-247 -268 -280 283 0
247 268 280 -283 0
-249 -269 284 0
-249 -282 284 0
-269 -282 284 0
249 269 -284 0
249 282 -284 0
269 282 -284 0
249 -284 -285 0
269 -284 -285 0
282 -284 -285 0
-249 284 285 0
-269 284 285 0
-282 284 285 0
-249 -269 -282 285 0
249 269 282 -285 0
-251 -270 286 0
-251 -284 286 0
-270 -284 286 0
251 270 -286 0
251 284 -286 0
270 284 -286 0
251 -286 -287 0
270 -286 -287 0
284 -286 -287 0
-251 286 287 0
-270 286 287 0
-284 286 287 0
-251 -270 -284 287 0
251 270 284 -287 0
-253 -271 288 0
-253 -286 288 0
-271 -286 288 0
253 271 -288 0
253 286 -288 0
271 286 -288 0
253 -288 -289 0
271 -288 -289 0
286 -288 -289 0
-253 288 289 0
-271 288 289 0
-286 288 289 0
-253 -271 -286 289 0
253 271 286 -289 0
-255 -272 290 0
-255 -288 290 0
-272 -288 290 0
255 272 -290 0
255 288 -290 0
272 288 -290 0
255 -290 -291 0
272 -290 -291 0
288 -290 -291 0
-255 290 291 0
-272 290 291 0
-288 290 291 0
-255 -272 -288 291 0
255 272 288 -291 0
-257 -273 292 0
-257 -290 292 0
-273 -290 292 0
257 273 -292 0
257 290 -292 0
273 290 -292 0
257 -292 -293 0
273 -292 -293 0
290 -292 -293 0
-257 292 293 0
-273 292 293 0
-290 292 293 0
-257 -273 -290 293 0
257 273 290 -293 0
-259 -274 294 0
-259 -292 294 0
-274 -292 294 0
259 274 -294 0
259 292 -294 0
274 292 -294 0
259 -294 -295 0
274 -294 -295 0
292 -294 -295 0
-259 294 295 0
-274 294 295 0
-292 294 295 0
-259 -274 -292 295 0
259 274 292 -295 0
-261 -275 296 0
-261 -294 296 0
-275 -294 296 0
261 275 -296 0
261 294 -296 0
275 294 -296 0
261 -296 -297 0
275 -296 -297 0
294 -296 -297 0
-261 296 297 0
-275 296 297 0
-294 296 297 0
-261 -275 -294 297 0
261 275 294 -297 0
-263 -276 298 0
-263 -296 298 0
-276 -296 298 0
263 276 -298 0
263 296 -298 0
276 296 -298 0
263 -298 -299 0
276 -298 -299 0
296 -298 -299 0
-263 298 299 0
-276 298 299 0
-296 298 299 0
-263 -276 -296 299 0
263 276 296 -299 0
-265 -277 300 0
-265 -298 300 0
-277 -298 300 0
265 277 -300 0
265 298 -300 0
277 298 -300 0
265 -300 -301 0
277 -300 -301 0
298 -300 -301 0
-265 300 301 0
-277 300 301 0
-298 300 301 0
-265 -277 -298 301 0
265 277 298 -301 0
18 -302 0
68 -302 0
-18 -68 302 0
109 -303 0
68 -303 0
-68 -109 303 0
110 -304 0
68 -304 0
-68 -110 304 0
111 -305 0
68 -305 0
-68 -111 305 0
112 -306 0
68 -306 0
-68 -112 306 0
113 -307 0
68 -307 0
-68 -113 307 0
114 -308 0
68 -308 0
-68 -114 308 0
115 -309 0
68 -309 0
-68 -115 309 0
116 -310 0
68 -310 0
-68 -116 310 0
117 -311 0
68 -311 0
-68 -117 311 0
118 -312 0
68 -312 0
-68 -118 312 0
281 -313 0
302 -313 0
-281 -302 313 0
-281 -302 -314 0
281 302 -314 0
-281 302 314 0
281 -302 314 0
-283 -303 315 0
-283 -313 315 0
-303 -313 315 0
283 303 -315 0
283 313 -315 0
303 313 -315 0
283 -315 -316 0
303 -315 -316 0
313 -315 -316 0
-283 315 316 0
-303 315 316 0
-313 315 316 0
-283 -303 -313 316 0
283 303 313 -316 0
-285 -304 317 0
-285 -315 317 0
-304 -315 317 0
285 304 -317 0
285 315 -317 0
304 315 -317 0
285 -317 -318 0
304 -317 -318 0
315 -317 -318 0
-285 317 318 0
-304 317 318 0
-315 317 318 0
-285 -304 -315 318 0
285 304 315 -318 0
-287 -305 319 0
-287 -317 319 0
-305 -317 319 0
287 305 -319 0
287 317 -319 0
305 317 -319 0
287 -319 -320 0
305 -319 -320 0
317 -319 -320 0
-287 319 320 0
-305 319 320 0
-317 319 320 0
-287 -305 -317 320 0
287 305 317 -320 0
-289 -306 321 0
-289 -319 321 0
-306 -319 321 0
289 306 -321 0
289 319 -321 0
306 319 -321 0
289 -321 -322 0
306 -321 -322 0
319 -321 -322 0
-289 321 322 0
-306 321 322 0
-319 321 322 0
-289 -306 -319 322 0
289 306 319 -322 0
-291 -307 323 0
-291 -321 323 0
-307 -321 323 0
291 307 -323 0
291 321 -323 0
307 321 -323 0
291 -323 -324 0
307 -323 -324 0
321 -323 -324 0
-291 323 324 0
-307 323 324 0
-321 323 324 0
-291 -307 -321 324 0
291 307 321 -324 0
-293 -308 325 0
-293 -323 325 0
-308 -323 325 0
293 308 -325 0
293 323 -325 0
308 323 -325 0
293 -325 -326 0
308 -325 -326 0
323 -325 -326 0
-293 325 326 0
-308 325 326 0
-323 325 326 0
-293 -308 -323 326 0
293 308 323 -326 0
-295 -309 327 0
-295 -325 327 0
-309 -325 327 0
295 309 -327 0
295 325 -327 0
309 325 -327 0
295 -327 -328 0
309 -327 -328 0
325 -327 -328 0
-295 327 328 0
-309 327 328 0
-325 327 328 0
-295 -309 -325 328 0
295 309 325 -328 0
-297 -310 329 0
-297 -327 329 0
-310 -327 329 0
297 310 -329 0
297 327 -329 0
310 327 -329 0
297 -329 -330 0
310 -329 -330 0
327 -329 -330 0
-297 329 330 0
-310 329 330 0
-327 329 330 0
-297 -310 -327 330 0
297 310 327 -330 0
-299 -311 331 0
-299 -329 331 0
-311 -329 331 0
299 311 -331 0
299 329 -331 0
311 329 -331 0
299 -331 -332 0
311 -331 -332 0
329 -331 -332 0
-299 331 332 0
-311 331 332 0
-329 331 332 0
-299 -311 -329 332 0
299 311 329 -332 0
-301 -312 333 0
-301 -331 333 0
-312 -331 333 0
301 312 -333 0
301 331 -333 0
312 331 -333 0
301 -333 -334 0
312 -333 -334 0
331 -333 -334 0
-301 333 334 0
-312 333 334 0
-331 333 334 0
-301 -312 -331 334 0
301 312 331 -334 0
18 -335 0
69 -335 0
-18 -69 335 0
109 -336 0
69 -336 0
-69 -109 336 0
110 -337 0
69 -337 0
-69 -110 337 0
111 -338 0
69 -338 0
-69 -111 338 0
112 -339 0
69 -339 0
-69 -112 339 0
113 -340 0
69 -340 0
-69 -113 340 0
114 -341 0
69 -341 0
-69 -114 341 0
115 -342 0
69 -342 0
-69 -115 342 0
116 -343 0
69 -343 0
-69 -116 343 0
117 -344 0
69 -344 0
-69 -117 344 0
316 -345 0
335 -345 0
-316 -335 345 0
-316 -335 -346 0
316 335 -346 0
-316 335 346 0
316 -335 346 0
-318 -336 347 0
-318 -345 347 0
-336 -345 347 0
318 336 -347 0
318 345 -347 0
336 345 -347 0
318 -347 -348 0
336 -347 -348 0
345 -347 -348 0
-318 347 348 0
-336 347 348 0
-345 347 348 0
-318 -336 -345 348 0
318 336 345 -348 0
-320 -337 349 0
-320 -347 349 0
-337 -347 349 0
320 337 -349 0
320 347 -349 0
337 347 -349 0
320 -349 -350 0
337 -349 -350 0
347 -349 -350 0
-320 349 350 0
-337 349 350 0
-347 349 350 0
-320 -337 -347 350 0
320 337 347 -350 0
-322 -338 351 0
-322 -349 351 0
-338 -349 351 0
322 338 -351 0
322 349 -351 0
338 349 -351 0
322 -351 -352 0
338 -351 -352 0
349 -351 -352 0
-322 351 352 0
-338 351 352 0
-349 351 352 0
-322 -338 -349 352 0
322 338 349 -352 0
-324 -339 353 0
-324 -351 353 0
-339 -351 353 0
324 339 -353 0
324 351 -353 0
339 351 -353 0
324 -353 -354 0
339 -353 -354 0
351 -353 -354 0
-324 353 354 0
-339 353 354 0
-351 353 354 0
-324 -339 -351 354 0
324 339 351 -354 0
-326 -340 355 0
-326 -353 355 0
-340 -353 355 0
326 340 -355 0
326 353 -355 0
340 353 -355 0
326 -355 -356 0
340 -355 -356 0
353 -355 -356 0
-326 355 356 0
-340 355 356 0
-353 355 356 0
-326 -340 -353 356 0
326 340 353 -356 0
-328 -341 357 0
-328 -355 357 0
-341 -355 357 0
328 341 -357 0
328 355 -357 0
341 355 -357 0
328 -357 -358 0
341 -357 -358 0
355 -357 -358 0
-328 357 358 0
-341 357 358 0
-355 357 358 0
-328 -341 -355 358 0
328 341 355 -358 0
-330 -342 359 0
-330 -357 359 0
-342 -357 359 0
330 342 -359 0
330 357 -359 0
342 357 -359 0
330 -359 -360 0
342 -359 -360 0
357 -359 -360 0
-330 359 360 0
-342 359 360 0
-357 359 360 0
-330 -342 -357 360 0
330 342 357 -360 0
-332 -343 361 0
-332 -359 361 0
-343 -359 361 0
332 343 -361 0
332 359 -361 0
343 359 -361 0
332 -361 -362 0
343 -361 -362 0
359 -361 -362 0
-332 361 362 0
-343 361 362 0
-359 361 362 0
-332 -343 -359 362 0
332 343 359 -362 0
-334 -344 363 0
-334 -361 363 0
-344 -361 363 0
334 344 -363 0
334 361 -363 0
344 361 -363 0
334 -363 -364 0
344 -363 -364 0
361 -363 -364 0
-334 363 364 0
-344 363 364 0
-361 363 364 0
-334 -344 -361 364 0
334 344 361 -364 0
18 -365 0
70 -365 0
-18 -70 365 0
109 -366 0
70 -366 0
-70 -109 366 0
110 -367 0
70 -367 0
-70 -110 367 0
111 -368 0
70 -368 0
-70 -111 368 0
112 -369 0
70 -369 0
-70 -112 369 0
113 -370 0
70 -370 0
-70 -113 370 0
114 -371 0
70 -371 0
-70 -114 371 0
115 -372 0
70 -372 0
-70 -115 372 0
116 -373 0
70 -373 0
-70 -116 373 0
348 -374 0
365 -374 0
-348 -365 374 0
-348 -365 -375 0
348 365 -375 0
-348 365 375 0
348 -365 375 0
-350 -366 376 0
-350 -374 376 0
-366 -374 376 0
350 366 -376 0
350 374 -376 0
366 374 -376 0
350 -376 -377 0
366 -376 -377 0
374 -376 -377 0
-350 376 377 0
-366 376 377 0
-374 376 377 0
-350 -366 -374 377 0
350 366 374 -377 0
-352 -367 378 0
-352 -376 378 0
-367 -376 378 0
352 367 -378 0
352 376 -378 0
367 376 -378 0
352 -378 -379 0
367 -378 -379 0
376 -378 -379 0
-352 378 379 0
-367 378 379 0
-376 378 379 0
-352 -367 -376 379 0
352 367 376 -379 0
-354 -368 380 0
-354 -378 380 0
-368 -378 380 0
354 368 -380 0
354 378 -380 0
368 378 -380 0
354 -380 -381 0
368 -380 -381 0
378 -380 -381 0
-354 380 381 0
-368 380 381 0
-378 380 381 0
-354 -368 -378 381 0
354 368 378 -381 0
-356 -369 382 0
-356 -380 382 0
-369 -380 382 0
356 369 -382 0
356 380 -382 0
369 380 -382 0
356 -382 -383 0
369 -382 -383 0
380 -382 -383 0
-356 382 383 0
-369 382 383 0
-380 382 383 0
-356 -369 -380 383 0
356 369 380 -383 0
-358 -370 384 0
-358 -382 384 0
-370 -382 384 0
358 370 -384 0
358 382 -384 0
370 382 -384 0
358 -384 -385 0
370 -384 -385 0
382 -384 -385 0
-358 384 385 0
-370 384 385 0
-382 384 385 0
-358 -370 -382 385 0
358 370 382 -385 0
-360 -371 386 0
-360 -384 386 0
-371 -384 386 0
360 371 -386 0
360 384 -386 0
371 384 -386 0
360 -386 -387 0
371 -386 -387 0
384 -386 -387 0
-360 386 387 0
-371 386 387 0
-384 386 387 0
-360 -371 -384 387 0
360 371 384 -387 0
-362 -372 388 0
-362 -386 388 0
-372 -386 388 0
362 372 -388 0
362 386 -388 0
372 386 -388 0
362 -388 -389 0
372 -388 -389 0
386 -388 -389 0
-362 388 389 0
-372 388 389 0
-386 388 389 0
-362 -372 -386 389 0
362 372 386 -389 0
-364 -373 390 0
-364 -388 390 0
-373 -388 390 0
364 373 -390 0
364 388 -390 0
373 388 -390 0
364 -390 -391 0
373 -390 -391 0
388 -390 -391 0
-364 390 391 0
-373 390 391 0
-388 390 391 0
-364 -373 -388 391 0
364 373 388 -391 0
18 -392 0
71 -392 0
-18 -71 392 0
109 -393 0
71 -393 0
-71 -109 393 0
110 -394 0
71 -394 0
-71 -110 394 0
111 -395 0
71 -395 0
-71 -111 395 0
112 -396 0
71 -396 0
-71 -112 396 0
113 -397 0
71 -397 0
-71 -113 397 0
114 -398 0
71 -398 0
-71 -114 398 0
115 -399 0
71 -399 0
-71 -115 399 0
377 -400 0
392 -400 0
-377 -392 400 0
-377 -392 -401 0
377 392 -401 0
-377 392 401 0
377 -392 401 0
-379 -393 402 0
-379 -400 402 0
-393 -400 402 0
379 393 -402 0
379 400 -402 0
393 400 -402 0
379 -402 -403 0
393 -402 -403 0
400 -402 -403 0
-379 402 403 0
-393 402 403 0
-400 402 403 0
-379 -393 -400 403 0
379 393 400 -403 0
-381 -394 404 0
-381 -402 404 0
-394 -402 404 0
381 394 -404 0
381 402 -404 0
394 402 -404 0
381 -404 -405 0
394 -404 -405 0
402 -404 -405 0
-381 404 405 0
-394 404 405 0
-402 404 405 0
-381 -394 -402 405 0
381 394 402 -405 0
-383 -395 406 0
-383 -404 406 0
-395 -404 406 0
383 395 -406 0
383 404 -406 0
395 404 -406 0
383 -406 -407 0
395 -406 -407 0
404 -406 -407 0
-383 406 407 0
-395 406 407 0
-404 406 407 0
-383 -395 -404 407 0
383 395 404 -407 0
-385 -396 408 0
-385 -406 408 0
-396 -406 408 0
385 396 -408 0
385 406 -408 0
396 406 -408 0
385 -408 -409 0
396 -408 -409 0
406 -408 -409 0
-385 408 409 0
-396 408 409 0
-406 408 409 0
-385 -396 -406 409 0
385 396 406 -409 0
-387 -397 410 0
-387 -408 410 0
-397 -408 410 0
387 397 -410 0
387 408 -410 0
397 408 -410 0
387 -410 -411 0
397 -410 -411 0
408 -410 -411 0
-387 410 411 0
-397 410 411 0
-408 410 411 0
-387 -397 -408 411 0
387 397 408 -411 0
-389 -398 412 0
-389 -410 412 0
-398 -410 412 0
389 398 -412 0
389 410 -412 0
398 410 -412 0
389 -412 -413 0
398 -412 -413 0
410 -412 -413 0
-389 412 413 0
-398 412 413 0
-410 412 413 0
-389 -398 -410 413 0
389 398 410 -413 0
-391 -399 414 0
-391 -412 414 0
-399 -412 414 0
391 399 -414 0
391 412 -414 0
399 412 -414 0
391 -414 -415 0
399 -414 -415 0
412 -414 -415 0
-391 414 415 0
-399 414 415 0
-412 414 415 0
-391 -399 -412 415 0
391 399 412 -415 0
18 -416 0
72 -416 0
-18 -72 416 0
109 -417 0
72 -417 0
-72 -109 417 0
110 -418 0
72 -418 0
-72 -110 418 0
111 -419 0
72 -419 0
-72 -111 419 0
112 -420 0
72 -420 0
-72 -112 420 0
113 -421 0
72 -421 0
-72 -113 421 0
114 -422 0
72 -422 0
-72 -114 422 0
403 -423 0
416 -423 0
-403 -416 423 0
-403 -416 -424 0
403 416 -424 0
-403 416 424 0
403 -416 424 0
-405 -417 425 0
-405 -423 425 0
-417 -423 425 0
405 417 -425 0
405 423 -425 0
417 423 -425 0
405 -425 -426 0
417 -425 -426 0
423 -425 -426 0
-405 425 426 0
-417 425 426 0
-423 425 426 0
-405 -417 -423 426 0
405 417 423 -426 0
-407 -418 427 0
-407 -425 427 0
-418 -425 427 0
407 418 -427 0
407 425 -427 0
418 425 -427 0
407 -427 -428 0
418 -427 -428 0
425 -427 -428 0
-407 427 428 0
-418 427 428 0
-425 427 428 0
-407 -418 -425 428 0
407 418 425 -428 0
-409 -419 429 0
-409 -427 429 0
-419 -427 429 0
409 419 -429 0
409 427 -429 0
419 427 -429 0
409 -429 -430 0
419 -429 -430 0
427 -429 -430 0
-409 429 430 0
-419 429 430 0
-427 429 430 0
-409 -419 -427 430 0
409 419 427 -430 0
-411 -420 431 0
-411 -429 431 0
-420 -429 431 0
411 420 -431 0
411 429 -431 0
420 429 -431 0
411 -431 -432 0
420 -431 -432 0
429 -431 -432 0
-411 431 432 0
-420 431 432 0
-429 431 432 0
-411 -420 -429 432 0
411 420 429 -432 0
-413 -421 433 0
-413 -431 433 0
-421 -431 433 0
413 421 -433 0
413 431 -433 0
421 431 -433 0
413 -433 -434 0
421 -433 -434 0
431 -433 -434 0
-413 433 434 0
-421 433 434 0
-431 433 434 0
-413 -421 -431 434 0
413 421 431 -434 0
-415 -422 435 0
-415 -433 435 0
-422 -433 435 0
415 422 -435 0
415 433 -435 0
422 433 -435 0
415 -435 -436 0
422 -435 -436 0
433 -435 -436 0
-415 435 436 0
-422 435 436 0
-433 435 436 0
-415 -422 -433 436 0
415 422 433 -436 0
18 -437 0
73 -437 0
-18 -73 437 0
109 -438 0
73 -438 0
-73 -109 438 0
110 -439 0
73 -439 0
-73 -110 439 0
111 -440 0
73 -440 0
-73 -111 440 0
112 -441 0
73 -441 0
-73 -112 441 0
113 -442 0
73 -442 0
-73 -113 442 0
426 -443 0
437 -443 0
-426 -437 443 0
-426 -437 -444 0
426 437 -444 0
-426 437 444 0
426 -437 444 0
-428 -438 445 0
-428 -443 445 0
-438 -443 445 0
428 438 -445 0
428 443 -445 0
438 443 -445 0
428 -445 -446 0
438 -445 -446 0
443 -445 -446 0
-428 445 446 0
-438 445 446 0
-443 445 446 0
-428 -438 -443 446 0
428 438 443 -446 0
-430 -439 447 0
-430 -445 447 0
-439 -445 447 0
430 439 -447 0
430 445 -447 0
439 445 -447 0
430 -447 -448 0
439 -447 -448 0
445 -447 -448 0
-430 447 448 0
-439 447 448 0
-445 447 448 0
-430 -439 -445 448 0
430 439 445 -448 0
-432 -440 449 0
-432 -447 449 0
-440 -447 449 0
432 440 -449 0
432 447 -449 0
440 447 -449 0
432 -449 -450 0
440 -449 -450 0
447 -449 -450 0
-432 449 450 0
-440 449 450 0
-447 449 450 0
-432 -440 -447 450 0
432 440 447 -450 0
-434 -441 451 0
-434 -449 451 0
-441 -449 451 0
434 441 -451 0
434 449 -451 0
441 449 -451 0
434 -451 -452 0
441 -451 -452 0
449 -451 -452 0
-434 451 452 0
-441 451 452 0
-449 451 452 0
-434 -441 -449 452 0
434 441 449 -452 0
-436 -442 453 0
-436 -451 453 0
-442 -451 453 0
436 442 -453 0
436 451 -453 0
442 451 -453 0
436 -453 -454 0
442 -453 -454 0
451 -453 -454 0
-436 453 454 0
-442 453 454 0
-451 453 454 0
-436 -442 -451 454 0
436 442 451 -454 0
18 -455 0
74 -455 0
-18 -74 455 0
109 -456 0
74 -456 0
-74 -109 456 0
110 -457 0
74 -457 0
-74 -110 457 0
111 -458 0
74 -458 0
-74 -111 458 0
112 -459 0
74 -459 0
-74 -112 459 0
446 -460 0
455 -460 0
-446 -455 460 0
-446 -455 -461 0
446 455 -461 0
-446 455 461 0
446 -455 461 0
-448 -456 462 0
-448 -460 462 0
-456 -460 462 0
448 456 -462 0
448 460 -462 0
456 460 -462 0
448 -462 -463 0
456 -462 -463 0
460 -462 -463 0
-448 462 463 0
-456 462 463 0
-460 462 463 0
-448 -456 -460 463 0
448 456 460 -463 0
-450 -457 464 0
-450 -462 464 0
-457 -462 464 0
450 457 -464 0
450 462 -464 0
457 462 -464 0
450 -464 -465 0
457 -464 -465 0
462 -464 -465 0
-450 464 465 0
-457 464 465 0
-462 464 465 0
-450 -457 -462 465 0
450 457 462 -465 0
-452 -458 466 0
-452 -464 466 0
-458 -464 466 0
452 458 -466 0
452 464 -466 0
458 464 -466 0
452 -466 -467 0
458 -466 -467 0
464 -466 -467 0
-452 466 467 0
-458 466 467 0
-464 466 467 0
-452 -458 -464 467 0
452 458 464 -467 0
-454 -459 468 0
-454 -466 468 0
-459 -466 468 0
454 459 -468 0
454 466 -468 0
459 466 -468 0
454 -468 -469 0
459 -468 -469 0
466 -468 -469 0
-454 468 469 0
-459 468 469 0
-466 468 469 0
-454 -459 -466 469 0
454 459 466 -469 0
18 -470 0
75 -470 0
-18 -75 470 0
109 -471 0
75 -471 0
-75 -109 471 0
110 -472 0
75 -472 0
-75 -110 472 0
111 -473 0
75 -473 0
-75 -111 473 0
463 -474 0
470 -474 0
-463 -470 474 0
-463 -470 -475 0
463 470 -475 0
-463 470 475 0
463 -470 475 0
-465 -471 476 0
-465 -474 476 0
-471 -474 476 0
465 471 -476 0
465 474 -476 0
471 474 -476 0
465 -476 -477 0
471 -476 -477 0
474 -476 -477 0
-465 476 477 0
-471 476 477 0
-474 476 477 0
-465 -471 -474 477 0
465 471 474 -477 0
-467 -472 478 0
-467 -476 478 0
-472 -476 478 0
467 472 -478 0
467 476 -478 0
472 476 -478 0
467 -478 -479 0
472 -478 -479 0
476 -478 -479 0
-467 478 479 0
-472 478 479 0
-476 478 479 0
-467 -472 -476 479 0
467 472 476 -479 0
-469 -473 480 0
-469 -478 480 0
-473 -478 480 0
469 473 -480 0
469 478 -480 0
473 478 -480 0
469 -480 -481 0
473 -480 -481 0
478 -480 -481 0
-469 480 481 0
-473 480 481 0
-478 480 481 0
-469 -473 -478 481 0
469 473 478 -481 0
18 -482 0
76 -482 0
-18 -76 482 0
109 -483 0
76 -483 0
-76 -109 483 0
110 -484 0
76 -484 0
-76 -110 484 0
477 -485 0
482 -485 0
-477 -482 485 0
-477 -482 -486 0
477 482 -486 0
-477 482 486 0
477 -482 486 0
-479 -483 487 0
-479 -485 487 0
-483 -485 487 0
479 483 -487 0
479 485 -487 0
483 485 -487 0
479 -487 -488 0
483 -487 -488 0
485 -487 -488 0
-479 487 488 0
-483 487 488 0
-485 487 488 0
-479 -483 -485 488 0
479 483 485 -488 0
-481 -484 489 0
-481 -487 489 0
-484 -487 489 0
481 484 -489 0
481 487 -489 0
484 487 -489 0
481 -489 -490 0
484 -489 -490 0
487 -489 -490 0
-481 489 490 0
-484 489 490 0
-487 489 490 0
-481 -484 -487 490 0
481 484 487 -490 0
18 -491 0
77 -491 0
-18 -77 491 0
109 -492 0
77 -492 0
-77 -109 492 0
488 -493 0
491 -493 0
-488 -491 493 0
-488 -491 -494 0
488 491 -494 0
-488 491 494 0
488 -491 494 0
-490 -492 495 0
-490 -493 495 0
-492 -493 495 0
490 492 -495 0
490 493 -495 0
492 493 -495 0
490 -495 -496 0
492 -495 -496 0
493 -495 -496 0
-490 495 496 0
-492 495 496 0
-493 495 496 0
-490 -492 -493 496 0
490 492 493 -496 0
18 -497 0
78 -497 0
-18 -78 497 0
496 -498 0
497 -498 0
-496 -497 498 0
-496 -497 -499 0
496 497 -499 0
-496 497 499 0
496 -497 499 0
-17 -33 -500 0
17 33 -500 0
-17 33 500 0
17 -33 500 0
-124 -501 0
-156 -501 0
124 156 501 0
124 156 -502 0
-124 -156 -502 0
-124 156 502 0
124 -156 502 0
501 -503 0
-200 -503 0
200 -501 503 0
200 -501 -504 0
-200 501 -504 0
200 501 504 0
-200 -501 504 0
503 -505 0
-241 -505 0
241 -503 505 0
241 -503 -506 0
-241 503 -506 0
241 503 506 0
-241 -503 506 0
505 -507 0
-279 -507 0
279 -505 507 0
279 -505 -508 0
-279 505 -508 0
279 505 508 0
-279 -505 508 0
507 -509 0
-314 -509 0
314 -507 509 0
314 -507 -510 0
-314 507 -510 0
314 507 510 0
-314 -507 510 0
509 -511 0
-346 -511 0
346 -509 511 0
346 -509 -512 0
-346 509 -512 0
346 509 512 0
-346 -509 512 0
511 -513 0
-375 -513 0
375 -511 513 0
375 -511 -514 0
-375 511 -514 0
375 511 514 0
-375 -511 514 0
513 -515 0
-401 -515 0
401 -513 515 0
401 -513 -516 0
-401 513 -516 0
401 513 516 0
-401 -513 516 0
515 -517 0
-424 -517 0
424 -515 517 0
424 -515 -518 0
-424 515 -518 0
424 515 518 0
-424 -515 518 0
517 -519 0
-444 -519 0
444 -517 519 0
444 -517 -520 0
-444 517 -520 0
444 517 520 0
-444 -517 520 0
519 -521 0
-461 -521 0
461 -519 521 0
461 -519 -522 0
-461 519 -522 0
461 519 522 0
-461 -519 522 0
521 -523 0
-475 -523 0
475 -521 523 0
475 -521 -524 0
-475 521 -524 0
475 521 524 0
-475 -521 524 0
523 -525 0
-486 -525 0
486 -523 525 0
486 -523 -526 0
-486 523 -526 0
486 523 526 0
-486 -523 526 0
525 -527 0
-494 -527 0
494 -525 527 0
494 -525 -528 0
-494 525 -528 0
494 525 528 0
-494 -525 528 0
527 -529 0
-499 -529 0
499 -527 529 0
499 -527 -530 0
-499 527 -530 0
499 527 530 0
-499 -527 530 0
-156 500 531 0
156 500 -531 0
-500 -502 531 0
-500 502 -531 0
-200 500 532 0
200 500 -532 0
-500 -504 532 0
-500 504 -532 0
-241 500 533 0
241 500 -533 0
-500 -506 533 0
-500 506 -533 0
-279 500 534 0
279 500 -534 0
-500 -508 534 0
-500 508 -534 0
-314 500 535 0
314 500 -535 0
-500 -510 535 0
-500 510 -535 0
-346 500 536 0
346 500 -536 0
-500 -512 536 0
-500 512 -536 0
-375 500 537 0
375 500 -537 0
-500 -514 537 0
-500 514 -537 0
-401 500 538 0
401 500 -538 0
-500 -516 538 0
-500 516 -538 0
-424 500 539 0
424 500 -539 0
-500 -518 539 0
-500 518 -539 0
-444 500 540 0
444 500 -540 0
-500 -520 540 0
-500 520 -540 0
-461 500 541 0
461 500 -541 0
-500 -522 541 0
-500 522 -541 0
-475 500 542 0
475 500 -542 0
-500 -524 542 0
-500 524 -542 0
-486 500 543 0
486 500 -543 0
-500 -526 543 0
-500 526 -543 0
-494 500 544 0
494 500 -544 0
-500 -528 544 0
-500 528 -544 0
-499 500 545 0
499 500 -545 0
-500 -530 545 0
-500 530 -545 0
-562 -564 -566 0
562 564 -566 0
-562 564 566 0
562 -564 566 0
-563 -565 -567 0
563 565 -567 0
-563 565 567 0
563 -565 567 0
-566 -568 0
-567 -568 0
566 567 568 0
-1 568 0
1 -568 0
